c FILE /home/rafael/Documents/HappySet/MIHS/inputs/happygen/output/graph_d_regular_k2_p0.1_v50_20241127_082538.txt
c SOURCE This is a d-regular graph formed for the happy graph colouring problem.
c DESCRIPTION It was generated using the problem generator of Rhyd Lewis
c
c GRAPH STATS
c Seed                             = 417418301
c Number of Nodes                  = 50
c Number of colours k              = 2
c Number of pre-assignments        = 5
c Degree of all vertices           = 6
c Density                          = 0.122449
c 
c The degrees of nodes 1 to 50, respectively, are as follows 
c [6, 6, 6, 6, 6, 6, 6, 6, 6, 6, 6, 6, 6, 6, 6, 6, 6, 6, 6, 6, 6, 6, 6, 6, 6, 6, 
c  6, 6, 6, 6, 6, 6, 6, 6, 6, 6, 6, 6, 6, 6, 6, 6, 6, 6, 6, 6, 6, 6, 6, 6] 
c  
p edge 50 150 2
e 1 9
e 1 13
e 1 21
e 1 22
e 1 27
e 1 41
e 2 13
e 2 29
e 2 34
e 2 36
e 2 40
e 2 42
e 3 8
e 3 23
e 3 33
e 3 35
e 3 43
e 3 47
e 4 6
e 4 23
e 4 26
e 4 27
e 4 33
e 4 34
e 5 11
e 5 12
e 5 17
e 5 21
e 5 25
e 5 30
e 6 8
e 6 24
e 6 33
e 6 37
e 6 47
e 7 16
e 7 18
e 7 30
e 7 43
e 7 44
e 7 48
e 8 12
e 8 20
e 8 29
e 8 46
e 9 11
e 9 13
e 9 30
e 9 43
e 9 44
e 10 16
e 10 22
e 10 26
e 10 40
e 10 43
e 10 46
e 11 21
e 11 30
e 11 35
e 11 45
e 12 20
e 12 24
e 12 26
e 12 42
e 13 31
e 13 39
e 13 44
e 14 17
e 14 26
e 14 27
e 14 31
e 14 37
e 14 41
e 15 25
e 15 27
e 15 28
e 15 41
e 15 45
e 15 46
e 16 19
e 16 23
e 16 27
e 16 31
e 17 32
e 17 35
e 17 38
e 17 39
e 18 19
e 18 27
e 18 39
e 18 40
e 18 45
e 19 24
e 19 25
e 19 42
e 19 50
e 20 24
e 20 28
e 20 29
e 20 36
e 21 23
e 21 31
e 21 36
e 22 23
e 22 28
e 22 49
e 22 50
e 23 35
e 24 38
e 24 50
e 25 35
e 25 40
e 25 47
e 26 33
e 26 47
e 28 29
e 28 30
e 28 39
e 29 31
e 29 45
e 30 41
e 31 38
e 32 33
e 32 36
e 32 39
e 32 48
e 32 50
e 33 37
e 34 37
e 34 38
e 34 42
e 34 50
e 35 47
e 36 48
e 36 49
e 37 38
e 37 39
e 38 46
e 40 45
e 40 48
e 41 48
e 41 49
e 42 48
e 42 49
e 43 46
e 43 49
e 44 45
e 44 47
e 44 50
e 46 49
n 2 1
n 25 2
n 36 1
n 38 2
n 45 1
